proyfinal/src/viki/013/andrea/andrea-localstore/experimentInOfficeAgust.take6/worker_2/c2df7d48-5e46-4010-a70c-ac6380df0927.als.cnf.out
Reading from standard input... Use '--help' for help.
============================[ Problem Statistics ]=============================
|                                                                             |
|  Number of variables:         87638                                         |
|  Number of clauses:          161767                                         |
|  Parse time:                   0.04 s                                       |
|                                                                             |
============================[ Search Statistics ]==============================
| Conflicts |          ORIGINAL         |          LEARNT          | Progress |
|           |    Vars  Clauses Literals |    Limit  Clauses Lit/Cl |          |
===============================================================================
|       100 |   63775   110197   275577 |    40405      100     12 | 27.229 % |
|       250 |   63775   110197   275577 |    44446      250     41 | 27.229 % |
|       475 |   63774   110153   275487 |    48890      474     67 | 27.230 % |
|       812 |   63711   109922   274875 |    53779      767     64 | 27.302 % |
|      1318 |   63711   109922   274875 |    59157     1273     57 | 27.302 % |
|      2077 |   63711   109922   274875 |    65073     2032     64 | 27.302 % |
|      3216 |   63711   109922   274875 |    71580     3171     63 | 27.302 % |
|      4924 |   63711   109922   274875 |    78739     4879     85 | 27.302 % |
|      7486 |   63655   109702   274329 |    86612     6497     83 | 27.366 % |
===============================================================================
restarts              : 41
conflicts             : 9601           (5797 /sec)
decisions             : 37574          (0.00 % random) (22686 /sec)
propagations          : 17256802       (10419101 /sec)
conflict literals     : 746082         (53.73 % deleted)
Memory used           : 28.71 MB
CPU time              : 1.65627 s

UNSATISFIABLE
